09-routing/solutions/XSH-n20-k4-46.opt.sol
Route #1: 4 9 19 10
Route #2: 14 20 15 5
Route #3: 12 2 18 3 16 17
Route #4: 1 7 6 8 11 13
Cost 812
